c uprop, v00.0, 
c reading from data/prog394.c.cnf
c done reading: 0.003529
p cnf 139 533
-47 -62 0
-47 -59 0
47 59 62 0
-41 59 62 0
-41 -59 -62 0
41 59 -62 0
41 -59 62 0
47 -56 0
-55 -56 0
-47 55 56 0
-47 -52 55 0
47 -52 -55 0
47 52 55 0
-47 52 -55 0
-48 56 0
-45 -48 0
45 48 -56 0
-43 45 -56 0
-43 -45 56 0
43 45 56 0
43 -45 -56 0
-42 48 0
-40 -42 0
40 42 -48 0
40 -48 -61 0
-40 48 -61 0
40 48 61 0
-40 -48 61 0
42 -63 0
-58 -63 0
-42 58 63 0
-42 58 -64 0
42 -58 -64 0
42 58 64 0
-42 -58 64 0
63 -65 0
-54 -65 0
54 -63 65 0
54 -63 -66 0
-54 63 -66 0
54 63 66 0
-54 -63 66 0
65 -67 0
-50 -67 0
50 -65 67 0
50 -65 -68 0
-50 65 -68 0
50 65 68 0
-50 -65 68 0
58 -69 0
62 -69 0
-58 -62 69 0
-58 -62 -70 0
58 62 -70 0
-58 62 70 0
58 -62 70 0
-54 -59 71 0
-54 -69 71 0
-59 -69 71 0
54 59 -71 0
54 69 -71 0
59 69 -71 0
54 -71 -72 0
59 -71 -72 0
69 -71 -72 0
-54 71 72 0
-59 71 72 0
-69 71 72 0
-54 -59 -69 72 0
54 59 69 -72 0
-50 -55 73 0
-50 -71 73 0
-55 -71 73 0
50 55 -73 0
50 71 -73 0
55 71 -73 0
50 -73 -74 0
55 -73 -74 0
71 -73 -74 0
-50 73 74 0
-55 73 74 0
-71 73 74 0
-50 -55 -71 74 0
50 55 71 -74 0
45 -75 0
73 -75 0
-45 -73 75 0
-45 73 0
45 -73 0
-38 40 0
-38 75 0
38 -40 -75 0
-40 75 0
40 -75 0
-37 58 0
-37 38 0
37 -38 -58 0
38 -58 0
-38 58 0
-36 54 0
-36 37 0
36 -37 -54 0
37 -54 0
-37 54 0
-36 -50 0
36 -50 0
-36 50 0
-44 -62 0
-44 -59 0
44 59 62 0
-39 59 62 0
-39 -59 -62 0
39 59 -62 0
39 -59 62 0
44 -57 0
-55 -57 0
-44 55 57 0
-44 -53 55 0
44 -53 -55 0
44 53 55 0
-44 53 -55 0
-49 57 0
-45 -49 0
45 49 -57 0
-35 45 -57 0
-35 -45 57 0
35 45 57 0
35 -45 -57 0
-32 49 0
-32 -40 0
32 40 -49 0
-31 40 -49 0
-31 -40 49 0
31 40 49 0
31 -40 -49 0
-30 32 0
-30 -70 0
30 -32 70 0
-29 -32 70 0
-29 32 -70 0
29 32 70 0
29 -32 -70 0
-28 30 0
-28 -72 0
28 -30 72 0
-27 -30 72 0
-27 30 -72 0
27 30 72 0
27 -30 -72 0
-26 28 0
-26 -74 0
26 -28 74 0
-25 -28 74 0
-25 28 -74 0
25 28 74 0
25 -28 -74 0
-24 26 0
24 -26 0
-23 -26 0
23 26 0
-22 24 0
22 -24 0
-21 -24 0
21 24 0
-20 22 0
20 -22 0
-19 -22 0
19 22 0
-18 20 0
18 -20 0
-17 -20 0
17 20 0
-16 18 0
16 -18 0
-15 -18 0
15 18 0
-14 16 0
14 -16 0
-13 -16 0
13 16 0
-33 -76 0
-76 -77 0
33 76 77 0
33 77 -79 0
-33 -77 -79 0
-33 77 79 0
33 -77 79 0
76 -80 0
-80 -81 0
-76 80 81 0
-76 81 -83 0
76 -81 -83 0
76 81 83 0
-76 -81 83 0
80 -84 0
-84 -85 0
-80 84 85 0
-80 85 -87 0
80 -85 -87 0
80 85 87 0
-80 -85 87 0
84 -88 0
-88 -89 0
-84 88 89 0
-84 89 -91 0
84 -89 -91 0
84 89 91 0
-84 -89 91 0
88 -92 0
-92 -93 0
-88 92 93 0
-88 93 -95 0
88 -93 -95 0
88 93 95 0
-88 -93 95 0
92 -96 0
-96 -97 0
-92 96 97 0
-92 97 -99 0
92 -97 -99 0
92 97 99 0
-92 -97 99 0
96 -100 0
-100 -101 0
-96 100 101 0
-96 101 -103 0
96 -101 -103 0
96 101 103 0
-96 -101 103 0
85 -104 0
33 -104 0
-33 -85 104 0
-33 -85 -105 0
33 85 -105 0
33 -85 105 0
-33 85 105 0
-77 -89 106 0
-89 -104 106 0
-77 -104 106 0
77 89 -106 0
89 104 -106 0
77 104 -106 0
89 -106 -107 0
77 -106 -107 0
104 -106 -107 0
-89 106 107 0
-77 106 107 0
-104 106 107 0
-77 -89 -104 107 0
77 89 104 -107 0
-81 -93 108 0
-93 -106 108 0
-81 -106 108 0
81 93 -108 0
93 106 -108 0
81 106 -108 0
93 -108 -109 0
81 -108 -109 0
106 -108 -109 0
-93 108 109 0
-81 108 109 0
-106 108 109 0
-81 -93 -106 109 0
81 93 106 -109 0
-85 -97 110 0
-97 -108 110 0
-85 -108 110 0
85 97 -110 0
97 108 -110 0
85 108 -110 0
97 -110 -111 0
85 -110 -111 0
108 -110 -111 0
-97 110 111 0
-85 110 111 0
-108 110 111 0
-85 -97 -108 111 0
85 97 108 -111 0
-89 -101 112 0
-101 -110 112 0
-89 -110 112 0
89 101 -112 0
101 110 -112 0
89 110 -112 0
101 -112 -113 0
89 -112 -113 0
110 -112 -113 0
-101 112 113 0
-89 112 113 0
-110 112 113 0
-89 -101 -110 113 0
89 101 110 -113 0
93 -114 0
112 -114 0
-93 -112 114 0
-93 -112 -115 0
93 112 -115 0
-93 112 115 0
93 -112 115 0
97 -116 0
114 -116 0
-97 -114 116 0
-97 -114 -117 0
97 114 -117 0
-97 114 117 0
97 -114 117 0
101 -118 0
116 -118 0
-101 -116 118 0
-101 -116 -119 0
101 116 -119 0
-101 116 119 0
101 -116 119 0
109 -120 0
33 -120 0
-33 -109 120 0
-33 -109 -121 0
33 109 -121 0
33 -109 121 0
-33 109 121 0
-77 -111 122 0
-111 -120 122 0
-77 -120 122 0
77 111 -122 0
111 120 -122 0
77 120 -122 0
111 -122 -123 0
77 -122 -123 0
120 -122 -123 0
-111 122 123 0
-77 122 123 0
-120 122 123 0
-77 -111 -120 123 0
77 111 120 -123 0
-81 -113 124 0
-113 -122 124 0
-81 -122 124 0
81 113 -124 0
113 122 -124 0
81 122 -124 0
113 -124 -125 0
81 -124 -125 0
122 -124 -125 0
-113 124 125 0
-81 124 125 0
-122 124 125 0
-81 -113 -122 125 0
81 113 122 -125 0
-85 -115 126 0
-115 -124 126 0
-85 -124 126 0
85 115 -126 0
115 124 -126 0
85 124 -126 0
-115 126 0
-85 126 0
-124 126 0
-85 -115 -124 0
-89 -117 127 0
-117 -126 127 0
-89 -126 127 0
89 117 -127 0
117 126 -127 0
89 126 -127 0
-117 127 0
-89 127 0
-126 127 0
-89 -117 -126 0
60 -93 -119 0
60 -119 -127 0
60 -93 -127 0
-60 93 119 0
-60 119 127 0
-60 93 127 0
60 -119 0
60 -93 0
60 -127 0
-93 -119 -127 0
46 -97 -118 0
46 -60 -118 0
46 -60 -97 0
-46 97 118 0
-46 60 118 0
-46 60 97 0
46 -118 0
46 -97 0
46 -60 0
-60 -97 -118 0
-46 -101 0
46 -101 0
-46 101 0
-33 -51 0
-51 -77 0
33 51 77 0
33 -34 77 0
-33 -34 -77 0
-33 34 77 0
33 34 -77 0
51 -78 0
-78 -81 0
-51 78 81 0
-51 81 -82 0
51 -81 -82 0
51 81 82 0
-51 -81 82 0
78 -86 0
-86 -105 0
-78 86 105 0
-78 -90 105 0
78 -90 -105 0
78 90 105 0
-78 90 -105 0
86 -94 0
-94 -107 0
-86 94 107 0
-86 -98 107 0
86 -98 -107 0
86 98 107 0
-86 98 -107 0
94 -102 0
-102 -121 0
-94 102 121 0
-94 121 -128 0
94 -121 -128 0
94 121 128 0
-94 -121 128 0
102 -129 0
-123 -129 0
-102 123 129 0
-102 123 -130 0
102 -123 -130 0
102 123 130 0
-102 -123 130 0
129 -131 0
-125 -131 0
125 -129 131 0
125 -129 -132 0
-125 129 -132 0
125 129 132 0
-125 -129 132 0
131 -133 0
-131 133 0
-131 -134 0
131 134 0
133 -135 0
-133 135 0
-133 -136 0
133 136 0
135 -137 0
-135 137 0
-135 -138 0
135 138 0
137 -139 0
-137 139 0
-12 -137 0
12 137 0
-11 139 0
11 -139 0
-10 -139 0
10 139 0
-9 11 0
9 -11 0
-8 -11 0
8 11 0
-7 62 0
-7 33 0
7 -33 -62 0
33 -62 0
-33 62 0
6 -59 -77 0
6 -7 -59 0
6 -7 -77 0
-6 59 77 0
-6 7 59 0
-6 7 77 0
-6 59 0
-6 77 0
-6 7 0
7 59 77 0
5 -55 -81 0
5 -6 -55 0
5 -6 -81 0
-5 55 81 0
-5 6 55 0
-5 6 81 0
5 -55 0
5 -81 0
5 -6 0
-6 -55 -81 0
4 -45 -105 0
4 -5 -45 0
4 -5 -105 0
-4 45 105 0
-4 5 45 0
-4 5 105 0
-4 45 0
-4 105 0
-4 5 0
5 45 105 0
3 -40 -107 0
3 -4 -40 0
3 -4 -107 0
-3 40 107 0
-3 4 40 0
-3 4 107 0
3 -40 0
3 -107 0
3 -4 0
-4 -40 -107 0
2 -70 -121 0
2 -3 -70 0
2 -3 -121 0
-2 70 121 0
-2 3 70 0
-2 3 121 0
2 -70 0
2 -121 0
2 -3 0
-3 -70 -121 0
1 -72 -123 0
1 -2 -72 0
1 -2 -123 0
-1 72 123 0
-1 2 72 0
-1 2 123 0
1 -72 0
1 -123 0
1 -2 0
-2 -72 -123 0
-74 -125 0
-1 -74 0
-1 -125 0
1 74 125 0
